c User generated cnf file
p cnf 12 71
4 -6 8 0 
6 3 -2 0 
4 1 -12 0 
-7 1 3 0 
3 8 -4 0 
-7 5 8 0 
4 -8 12 0 
11 7 -7 0 
-6 5 9 0 
-10 9 11 0 
8 -7 6 0 
1 -1 11 0 
9 -12 4 0 
6 12 -3 0 
9 2 -1 0 
-11 8 6 0 
10 -5 5 0 
11 1 -3 0 
-6 6 6 0 
3 2 -8 0 
10 4 -6 0 
1 3 -12 0 
5 9 -11 0 
10 3 -7 0 
8 11 -7 0 
7 12 -6 0 
11 -1 12 0 
6 -11 5 0 
12 -11 10 0 
9 -3 6 0 
1 9 -3 0 
-5 1 2 0 
2 -9 9 0 
9 -4 4 0 
-10 3 1 0 
-2 3 4 0 
2 8 -8 0 
-11 4 9 0 
-5 10 1 0 
8 11 -5 0 
2 10 -4 0 
-7 4 2 0 
6 4 -5 0 
12 -1 11 0 
-12 1 2 0 
4 5 -12 0 
-7 3 9 0 
-1 5 11 0 
3 -1 11 0 
4 11 -8 0 
7 6 -2 0 
12 -6 12 0 
6 -4 10 0 
8 8 -8 0 
10 12 -3 0 
3 1 -12 0 
2 9 -2 0 
6 12 -2 0 
9 2 -2 0 
4 -10 7 0 
2 -9 12 0 
12 10 -11 0 
-2 12 4 0 
10 -3 8 0 
-5 2 3 0 
-4 1 9 0 
5 -6 12 0 
8 6 -10 0 
8 2 -6 0 
3 -3 8 0 
8 2 -5 0 
